problems/GracefulWheelGraphs/GracefulWheelGraphs-models/compact/O2/lingeling/model-n09-solution000001.solution
language Essence 1.3

letting colouring be
        function(0 --> 15, 1 --> 1, 2 --> 10, 3 --> 18, 4 --> 7, 5 --> 13, 6 --> 16, 7 --> 12, 8 --> 17, 9 --> 0)
letting edgeID be
        function(0 --> 14, 1 --> 9, 2 --> 8, 3 --> 11, 4 --> 6, 5 --> 3, 6 --> 4, 7 --> 5, 8 --> 2, 9 --> 15, 10 --> 1,
                 11 --> 10, 12 --> 18, 13 --> 7, 14 --> 13, 15 --> 16, 16 --> 12, 17 --> 17)
